qbf_easy_train/easy_1265_SAT.qdimacs
p cnf 27 69
a 9 1 0
e 2 3 4 5 6 7 8 10 11 12 13 14 15 16 17 18 19 20 21 22 23 24 25 26 27 0
3 1 0
3 -2 0
-1 2 -3 0
5 -4 0
5 2 0
4 -2 -5 0
-5 6 -7 0
5 -6 -7 0
-5 -6 7 0
5 6 7 0
-3 7 -8 0
3 -7 -8 0
-3 -7 8 0
3 7 8 0
-6 9 -10 0
6 -9 -10 0
-6 -9 10 0
6 9 10 0
-13 -11 0
-13 12 0
11 -12 13 0
14 6 0
14 -13 0
-6 13 -14 0
15 10 0
15 -14 0
-10 14 -15 0
17 -2 0
17 -4 0
2 4 -17 0
-18 -16 0
-18 -17 0
16 17 18 0
19 15 0
19 18 0
-15 -18 -19 0
-20 8 0
-20 -19 0
-8 19 20 0
-21 -13 0
-21 -12 0
13 12 21 0
-22 21 0
-22 -4 0
-21 4 22 0
23 9 0
23 -11 0
-9 11 -23 0
-22 23 -24 0
22 -23 -24 0
-22 -23 24 0
22 23 24 0
25 -13 0
25 -1 0
13 1 -25 0
24 -25 -26 0
-24 25 -26 0
24 25 26 0
-24 -25 26 0
27 -20 0
27 -26 0
20 26 -27 0
-24 -25 -5 0
-21 19 22 -27 0
17 2 -22 0
-24 18 -9 17 -3 21 12 0
11 -24 20 -19 -23 13 -17 -9 0
-27 11 -15 -24 0
27 0
