sat_easy_train/easy_1265_SAT.dimacs
p cnf 83 262
3 2 -4 0
-3 -2 -4 0
3 -2 4 0
-3 2 4 0
-2 4 -5 0
2 -4 -5 0
-2 -4 5 0
2 4 5 0
-6 7 -8 0
6 -7 -8 0
-6 -7 8 0
6 7 8 0
9 5 0
9 8 0
-5 -8 -9 0
1 -9 -10 0
-1 9 -10 0
1 9 10 0
-1 -9 10 0
12 11 0
12 5 0
-11 -5 -12 0
-10 -12 -13 0
10 12 -13 0
-10 12 13 0
10 -12 13 0
11 -3 -15 0
-11 3 -15 0
11 3 15 0
-11 -3 15 0
-16 -1 0
-16 -15 0
1 15 16 0
18 16 0
18 17 0
-16 -17 -18 0
14 18 -19 0
-14 -18 -19 0
14 -18 19 0
-14 18 19 0
21 1 0
21 -20 0
-1 20 -21 0
23 11 0
23 -22 0
-11 22 -23 0
-24 -21 0
-24 -23 0
21 23 24 0
-26 -11 0
-26 25 0
11 -25 26 0
8 -14 -27 0
-8 14 -27 0
8 14 27 0
-8 -14 27 0
28 -6 0
28 -27 0
6 27 -28 0
29 -28 0
29 -9 0
28 9 -29 0
15 29 -30 0
-15 -29 -30 0
15 -29 30 0
-15 29 30 0
-31 29 0
-31 30 0
-29 -30 31 0
26 -31 -32 0
-26 31 -32 0
26 31 32 0
-26 -31 32 0
9 -11 -33 0
-9 11 -33 0
9 11 33 0
-9 -11 33 0
35 -3 0
35 -25 0
3 25 -35 0
-36 1 -37 0
36 -1 -37 0
-36 -1 37 0
36 1 37 0
38 35 0
38 37 0
-35 -37 -38 0
-39 -34 0
-39 -38 0
34 38 39 0
-40 33 0
-40 39 0
-33 -39 40 0
41 32 0
41 -40 0
-32 40 -41 0
24 41 -42 0
-24 -41 -42 0
24 -41 42 0
-24 41 42 0
-20 -8 -43 0
20 8 -43 0
-20 8 43 0
20 -8 43 0
-45 43 0
-45 44 0
-43 -44 45 0
46 27 0
46 20 0
-27 -20 -46 0
45 -46 -47 0
-45 46 -47 0
45 46 47 0
-45 -46 47 0
-48 -42 0
-48 47 0
42 -47 48 0
17 -37 -49 0
-17 37 -49 0
17 37 49 0
-17 -37 49 0
-50 -3 0
-50 49 0
3 -49 50 0
51 -50 0
51 -11 0
50 11 -51 0
52 -5 0
52 9 0
5 -9 -52 0
53 -52 0
53 3 0
52 -3 -53 0
37 -1 -54 0
-37 1 -54 0
37 1 54 0
-37 -1 54 0
55 -53 0
55 -54 0
53 54 -55 0
-14 56 0
14 56 0
-57 55 0
-57 -56 0
-55 56 57 0
58 51 0
58 57 0
-51 -57 -58 0
59 -15 0
59 3 0
15 -3 -59 0
-60 27 0
-60 -36 0
-27 36 60 0
61 3 0
61 -4 0
-3 4 -61 0
11 61 -62 0
-11 -61 -62 0
11 -61 62 0
-11 61 62 0
-63 -62 0
-63 49 0
62 -49 63 0
-64 60 0
-64 -63 0
-60 63 64 0
65 -59 0
65 64 0
59 -64 -65 0
58 65 -66 0
-58 -65 -66 0
58 -65 66 0
-58 65 66 0
48 66 -67 0
-48 -66 -67 0
48 -66 67 0
-48 66 67 0
68 -23 0
68 -18 0
23 18 -68 0
68 -18 -69 0
-68 18 -69 0
68 18 69 0
-68 -18 69 0
-9 -17 -70 0
9 17 -70 0
-9 17 70 0
9 -17 70 0
69 70 -71 0
-69 -70 -71 0
69 -70 71 0
-69 70 71 0
72 15 -73 0
-72 -15 -73 0
72 -15 73 0
-72 15 73 0
-74 -73 0
-74 -11 0
73 11 74 0
-76 -75 0
-76 43 0
75 -43 76 0
77 -76 0
77 -49 0
76 49 -77 0
77 -9 -78 0
-77 9 -78 0
77 9 78 0
-77 -9 78 0
79 -74 0
79 -78 0
74 78 -79 0
-71 79 -80 0
71 -79 -80 0
-71 -79 80 0
71 79 80 0
81 -67 0
81 80 0
67 -80 -81 0
19 81 -82 0
-19 -81 -82 0
19 -81 82 0
-19 81 82 0
83 -13 0
83 82 0
13 -82 -83 0
10 -80 38 82 40 0
80 4 77 83 -29 79 0
30 -59 15 -35 29 -56 0
-54 57 0
-57 73 55 -1 68 0
-26 -16 29 -53 6 55 0
-49 66 55 -81 0
79 -4 3 0
-62 -70 0
62 -66 -63 42 73 0
-29 -78 10 0
-76 -55 13 79 74 0
-9 45 33 53 7 15 0
-71 21 0
-12 54 -3 57 -47 0
-68 -27 0
3 -56 79 0
52 -11 70 -65 0
68 -53 0
-77 -20 43 -1 40 0
20 83 52 -32 -25 -36 0
5 45 -30 39 -57 -80 0
-70 -31 33 -24 -68 19 0
29 50 -64 0
-44 -65 -42 34 25 -20 0
56 80 60 0
47 -25 -14 -68 0
-7 -56 0
8 58 -75 0
-46 27 56 82 77 -55 0
79 -37 71 -65 -13 -72 0
-28 -4 57 76 -75 -38 0
22 59 8 0
4 -6 -27 23 0
83 0
